(set-logic ALL)
(declare-fun var0 () String)
(assert (str.in_re var0 (re.++ (re.+ (re.+ (str.to_re "00"))) (re.++ (re.union (re.* (str.to_re "11")) (re.* (str.to_re "22"))) (re.++ (re.+ (re.union (str.to_re "333") (str.to_re "444"))) (re.++ (re.+ (re.union (str.to_re "555") (str.to_re "66"))) (re.++ (re.union (re.union (str.to_re "77") (str.to_re "88")) (re.union (str.to_re "99") (str.to_re "a"))) (re.++ (re.* (re.* (str.to_re "b"))) (re.++ (re.union (re.* (str.to_re "cc")) (re.* (str.to_re "d"))) (re.++ (re.+ (re.* (str.to_re "e"))) (re.++ (re.union (re.+ (str.to_re "fff")) (re.+ (str.to_re "gg"))) (re.++ (re.* (re.* (str.to_re "hhh"))) (re.++ (re.* (re.union (str.to_re "iii") (str.to_re "jjj"))) (re.++ (re.union (re.union (str.to_re "k") (str.to_re "ll")) (re.union (str.to_re "m") (str.to_re "nn"))) (re.++ (re.+ (re.union (str.to_re "oo") (str.to_re "p"))) (re.++ (re.+ (re.union (str.to_re "q") (str.to_re "rrr"))) (re.++ (re.+ (re.+ (str.to_re "s"))) (re.++ (re.union (re.+ (str.to_re "t")) (re.+ (str.to_re "uuu"))) (re.++ (re.union (re.+ (str.to_re "vv")) (re.+ (str.to_re "www"))) (re.++ (re.union (re.+ (str.to_re "xxx")) (re.+ (str.to_re "y"))) (re.++ (re.union (re.union (str.to_re "zz") (str.to_re "AAA")) (re.union (str.to_re "BB") (str.to_re "CC"))) (re.++ (re.union (re.* (str.to_re "DDD")) (re.* (str.to_re "E"))) (re.++ (re.+ (re.+ (str.to_re "FFF"))) (re.++ (re.union (re.union (str.to_re "GGG") (str.to_re "HH")) (re.union (str.to_re "II") (str.to_re "JJJ"))) (re.++ (re.+ (re.* (str.to_re "KK"))) (re.++ (re.union (re.* (str.to_re "LLL")) (re.* (str.to_re "MMM"))) (re.++ (re.* (re.+ (str.to_re "NNN"))) (re.++ (re.union (re.* (str.to_re "OO")) (re.* (str.to_re "P"))) (re.++ (re.* (re.+ (str.to_re "QQ"))) (re.++ (re.+ (re.+ (str.to_re "R"))) (re.++ (re.union (re.union (str.to_re "SSS") (str.to_re "T")) (re.union (str.to_re "UU") (str.to_re "VVV"))) (re.++ (re.+ (re.+ (str.to_re "WW"))) (re.++ (re.+ (re.+ (str.to_re "X"))) (re.++ (re.union (re.* (str.to_re "Y")) (re.* (str.to_re "Z"))) (re.++ (re.union (re.* (str.to_re "!!!")) (re.* (str.to_re """"""))) (re.++ (re.* (re.union (str.to_re "###") (str.to_re "$$"))) (re.++ (re.union (re.+ (str.to_re "%%")) (re.+ (str.to_re "&&"))) (re.++ (re.union (re.union (str.to_re "''") (str.to_re "(")) (re.union (str.to_re "))") (str.to_re "**"))) (re.++ (re.union (re.union (str.to_re "+++") (str.to_re ",")) (re.union (str.to_re "-") (str.to_re "."))) (re.++ (re.+ (re.+ (str.to_re "/"))) (re.++ (re.* (re.union (str.to_re ":") (str.to_re ";;;"))) (re.++ (re.union (re.union (str.to_re "<") (str.to_re "=")) (re.union (str.to_re ">>") (str.to_re "??"))) (re.++ (re.* (re.* (str.to_re "@"))) (re.++ (re.+ (re.+ (str.to_re "[[["))) (re.++ (re.* (re.+ (str.to_re "\\"))) (re.++ (re.* (re.+ (str.to_re "]]]"))) (re.++ (re.+ (re.union (str.to_re "^") (str.to_re "_"))) (re.++ (re.+ (re.* (str.to_re "```"))) (re.++ (re.union (re.* (str.to_re "{")) (re.* (str.to_re "|||"))) (re.++ (re.union (re.union (str.to_re "}}") (str.to_re "~")) (re.union (str.to_re "0") (str.to_re "111"))) (re.++ (re.+ (re.+ (str.to_re "222"))) (re.++ (re.+ (re.* (str.to_re "3"))) (re.++ (re.* (re.* (str.to_re "4"))) (re.++ (re.+ (re.* (str.to_re "55"))) (re.++ (re.* (re.union (str.to_re "6") (str.to_re "77"))) (re.++ (re.+ (re.+ (str.to_re "888"))) (re.++ (re.+ (re.union (str.to_re "9") (str.to_re "aa"))) (re.++ (re.* (re.union (str.to_re "b") (str.to_re "ccc"))) (re.++ (re.* (re.+ (str.to_re "d"))) (re.++ (re.union (re.union (str.to_re "e") (str.to_re "fff")) (re.union (str.to_re "ggg") (str.to_re "hhh"))) (re.++ (re.union (re.* (str.to_re "i")) (re.* (str.to_re "jj"))) (re.++ (re.union (re.union (str.to_re "k") (str.to_re "ll")) (re.union (str.to_re "mmm") (str.to_re "nn"))) (re.++ (re.union (re.union (str.to_re "ooo") (str.to_re "ppp")) (re.union (str.to_re "qqq") (str.to_re "rr"))) (re.++ (re.* (re.union (str.to_re "sss") (str.to_re "t"))) (re.++ (re.* (re.+ (str.to_re "uu"))) (re.++ (re.union (re.+ (str.to_re "v")) (re.+ (str.to_re "www"))) (re.++ (re.union (re.union (str.to_re "xxx") (str.to_re "y")) (re.union (str.to_re "zzz") (str.to_re "AAA"))) (re.++ (re.* (re.* (str.to_re "BBB"))) (re.++ (re.* (re.+ (str.to_re "CCC"))) (re.++ (re.* (re.* (str.to_re "DD"))) (re.++ (re.+ (re.union (str.to_re "EE") (str.to_re "F"))) (re.++ (re.+ (re.union (str.to_re "GG") (str.to_re "H"))) (re.++ (re.* (re.+ (str.to_re "III"))) (re.++ (re.union (re.+ (str.to_re "JJ")) (re.+ (str.to_re "KKK"))) (re.++ (re.* (re.union (str.to_re "L") (str.to_re "M"))) (re.++ (re.* (re.+ (str.to_re "N"))) (re.++ (re.* (re.union (str.to_re "OO") (str.to_re "PPP"))) (re.++ (re.* (re.union (str.to_re "QQQ") (str.to_re "RR"))) (re.++ (re.* (re.+ (str.to_re "SS"))) (re.+ (re.+ (str.to_re "TT"))))))))))))))))))))))))))))))))))))))))))))))))))))))))))))))))))))))))))))))))))
(check-sat)